100
32
17
5
25
25
25
15
1
12
24
10
28
6
2
11
2
3
16
10
17
7
6
20
10
2
2
4
4
1
1
17
1
19
16
1
1
1
1
1
18
1
1
1
5
2
1
3
4
4
1
3
2
2
3
1
17
3
3
1
4
4
4
1
1
2
1
17
2
6
2
2
2
1
2
8
5
2
17
1
3
2
2
4
1
1
18
3
4
3
20
2
1
4
5
2
1
20
2
2
1
1